============================[ Problem Statistics ]=============================
|                                                                             |
|  Number of variables:          2780                                         |
|  Number of clauses:            8297                                         |
|  Parse time:                   0.00 s                                       |
|  Eliminated clauses:           0.09 Mb                                      |
|  Simplification time:          0.01 s                                       |
|                                                                             |
============================[ Search Statistics ]==============================
| Conflicts |          ORIGINAL         |          LEARNT          | Progress |
|           |    Vars  Clauses Literals |    Limit  Clauses Lit/Cl |          |
===============================================================================
|       100 |     765     3962    12705 |     1452      100     17 |  0.036 % |
|       250 |     765     3962    12705 |     1598      250     26 |  0.036 % |
|       475 |     765     3962    12705 |     1757      475     30 |  0.036 % |
|       812 |     765     3962    12705 |     1933      812     31 |  0.036 % |
|      1318 |     765     3962    12705 |     2126     1318     34 |  0.036 % |
|      2077 |     765     3962    12705 |     2339     2077     34 |  0.036 % |
|      3216 |     765     3962    12705 |     2573     2014     29 |  0.036 % |
|      4924 |     765     3962    12705 |     2830     2419     26 |  0.036 % |
|      7486 |     765     3962    12705 |     3114     1991     21 |  0.036 % |
|     11330 |     765     3962    12705 |     3425     2607     28 |  0.036 % |
|     17096 |     765     3962    12705 |     3768     2968     21 |  0.036 % |
|     25745 |     765     3962    12705 |     4144     3797     23 |  0.036 % |
|     38719 |     765     3962    12705 |     4559     3877     24 |  0.036 % |
|     58180 |     765     3962    12705 |     5015     4612     23 |  0.036 % |
|     87372 |     765     3962    12705 |     5516     2734     19 |  0.036 % |
|    131161 |     765     3962    12705 |     6068     4133     23 |  0.036 % |
|    196845 |     765     3962    12705 |     6675     4814     30 |  0.036 % |
|    295371 |     765     3962    12705 |     7342     3767     25 |  0.036 % |
|    443160 |     764     3958    12689 |     8077     4597     19 |  0.072 % |
|    664843 |     764     3958    12689 |     8884     8064     25 |  0.072 % |
|    997368 |     764     3958    12689 |     9773     6170     20 |  0.072 % |
|   1496156 |     764     3958    12689 |    10750     8043     21 |  0.072 % |
|   2244338 |     764     3958    12689 |    11825     6935     23 |  0.072 % |
|   3366612 |     764     3958    12689 |    13008    10720     25 |  0.072 % |
|   5050023 |     764     3958    12689 |    14309    10560     24 |  0.072 % |
|   7575139 |     761     3950    12661 |    15739    11361     23 |  0.180 % |
|  11362814 |     761     3950    12661 |    17313    10778     21 |  0.180 % |
|  17044326 |     761     3950    12661 |    19045    17274     24 |  0.180 % |
|  25566595 |     761     3950    12661 |    20949    13529     24 |  0.180 % |
|  38349998 |     761     3950    12661 |    23044    20678     30 |  0.180 % |
|  57525103 |     761     3950    12661 |    25349    13357     24 |  0.180 % |
|  86287761 |     761     3950    12661 |    27884    19582     22 |  0.180 % |
===============================================================================
restarts              : 131067
conflicts             : 98827073       (34830 /sec)
decisions             : 114357472      (0.00 % random) (40304 /sec)
propagations          : 17608635459    (6205891 /sec)
conflict literals     : 2592643373     (60.30 % deleted)
Memory used           : 142.28 MB
CPU time              : 2837.41 s

INDETERMINATE
File /Users/damy17/Documents/hw-uni/master-1-uvt/verificare-formala/benchmark/input-files/benchmarkfile19.cnf timed out after 2880 seconds.
